*SENSE:Minimize
NAME          A_has_a_positive_linear_combination
ROWS
 N  OBJ
 G  A0_1
 G  A0_2
 G  A1_2
 G  A2_3
 G  A3_4
 G  A1_0
 G  A2_1
 G  A3_2
 G  A4_1
 G  A4_2
 G  A4_3
COLUMNS
    __dummy   OBJ        0.000000000000e+00
    aux_distance_0  A0_1      -1.000000000000e+00
    aux_distance_0  A0_2       1.000000000000e+00
    aux_distance_0  A1_0      -1.000000000000e+00
    aux_distance_1  A0_1       1.000000000000e+00
    aux_distance_1  A0_2      -2.000000000000e+00
    aux_distance_1  A1_2      -1.000000000000e+00
    aux_distance_1  A1_0       1.000000000000e+00
    aux_distance_1  A2_1      -1.000000000000e+00
    aux_distance_1  A4_1      -1.000000000000e+00
    aux_distance_2  A0_2       1.000000000000e+00
    aux_distance_2  A1_2       1.000000000000e+00
    aux_distance_2  A2_3      -1.000000000000e+00
    aux_distance_2  A2_1       1.000000000000e+00
    aux_distance_2  A3_2      -1.000000000000e+00
    aux_distance_2  A4_1       2.000000000000e+00
    aux_distance_2  A4_2      -1.000000000000e+00
    aux_distance_3  A2_3       1.000000000000e+00
    aux_distance_3  A3_4      -1.000000000000e+00
    aux_distance_3  A3_2       1.000000000000e+00
    aux_distance_3  A4_2       2.000000000000e+00
    aux_distance_3  A4_3      -1.000000000000e+00
    aux_distance_4  A3_4       1.000000000000e+00
    aux_distance_4  A4_1      -1.000000000000e+00
    aux_distance_4  A4_2      -1.000000000000e+00
    aux_distance_4  A4_3       1.000000000000e+00
    aux_leg_0  A0_1      -1.000000000000e+00
    aux_leg_0  A0_2      -1.000000000000e+00
    aux_leg_0  A1_0       1.000000000000e+00
    aux_leg_1  A0_1       1.000000000000e+00
    aux_leg_1  A1_2      -1.000000000000e+00
    aux_leg_1  A1_0      -1.000000000000e+00
    aux_leg_1  A2_1       1.000000000000e+00
    aux_leg_1  A4_1       1.000000000000e+00
    aux_leg_2  A0_2       1.000000000000e+00
    aux_leg_2  A1_2       1.000000000000e+00
    aux_leg_2  A2_3      -1.000000000000e+00
    aux_leg_2  A2_1      -1.000000000000e+00
    aux_leg_2  A3_2       1.000000000000e+00
    aux_leg_2  A4_2       1.000000000000e+00
    aux_leg_3  A2_3       1.000000000000e+00
    aux_leg_3  A3_4      -1.000000000000e+00
    aux_leg_3  A3_2      -1.000000000000e+00
    aux_leg_3  A4_3       1.000000000000e+00
    aux_leg_4  A3_4       1.000000000000e+00
    aux_leg_4  A4_1      -1.000000000000e+00
    aux_leg_4  A4_2      -1.000000000000e+00
    aux_leg_4  A4_3      -1.000000000000e+00
RHS
    RHS       A0_1       1.000000000000e+00
    RHS       A0_2       1.000000000000e+00
    RHS       A1_2       1.000000000000e+00
    RHS       A2_3       1.000000000000e+00
    RHS       A3_4       1.000000000000e+00
    RHS       A1_0       1.000000000000e+00
    RHS       A2_1       1.000000000000e+00
    RHS       A3_2       1.000000000000e+00
    RHS       A4_1       1.000000000000e+00
    RHS       A4_2       1.000000000000e+00
    RHS       A4_3       1.000000000000e+00
BOUNDS
 FX BND       __dummy    0.000000000000e+00
 FR BND       aux_distance_0
 FR BND       aux_distance_1
 FR BND       aux_distance_2
 FR BND       aux_distance_3
 FR BND       aux_distance_4
 FR BND       aux_leg_0
 FR BND       aux_leg_1
 FR BND       aux_leg_2
 FR BND       aux_leg_3
 FR BND       aux_leg_4
ENDATA
